0 4380
2401 4294
4802 4220
7203 4151
9604 4070
12005 4010
14406 3966
16807 3915
19208 3883
21609 3813
24010 3779
26411 3762
28812 3735
31213 3723
33614 3714
36015 3703
38416 3697
40817 3687
43218 3657
45619 3640
48020 3631
50421 3624
52822 3616
55223 3598
57624 3589
60025 3585
62426 3582
64827 3580
67228 3572
69629 3569
72030 3552
74431 3550
76832 3546
79233 3542
